50 256
1 7
1 9
1 10
1 12
1 13
1 15
1 18
1 20
1 24
1 25
1 39
1 40
1 43
1 48
2 13
2 14
2 18
2 34
2 35
2 37
2 44
2 45
2 48
2 50
3 5
3 30
3 31
3 39
3 41
3 46
3 49
4 7
4 10
4 27
4 30
4 33
4 45
5 7
5 8
5 9
5 15
5 20
5 23
5 28
5 29
5 31
5 36
5 42
5 46
6 13
6 15
6 20
6 21
6 23
6 37
6 38
6 44
6 46
6 47
7 10
7 11
7 17
7 18
7 24
7 38
7 42
7 43
7 45
8 11
8 15
8 17
8 35
9 13
9 30
9 31
9 34
9 35
9 39
9 42
9 44
9 47
9 50
10 11
10 16
10 19
10 20
10 24
10 29
10 30
10 32
10 33
10 34
10 35
10 39
10 41
10 42
10 43
10 48
11 12
11 21
11 35
11 44
11 46
11 50
12 19
12 25
12 27
12 29
12 34
12 42
12 46
12 50
13 14
13 25
13 29
13 30
13 32
13 40
13 42
13 46
14 15
14 24
14 25
14 26
14 33
14 34
15 20
15 27
15 28
15 35
15 38
15 41
15 46
16 18
16 23
16 25
16 30
16 32
16 38
16 41
17 19
17 20
17 25
17 28
17 29
17 30
17 35
17 38
17 49
18 25
18 33
19 23
19 27
19 28
19 40
19 42
19 43
19 50
20 23
20 32
20 35
20 44
20 45
21 24
21 26
21 27
21 29
21 33
21 37
21 40
21 41
21 45
22 35
22 39
22 41
22 47
23 27
23 30
23 32
23 38
23 39
23 44
23 48
23 50
24 28
24 29
24 31
24 32
24 34
25 28
25 34
25 35
26 30
26 31
26 32
26 33
26 38
26 43
26 44
26 47
26 49
27 35
27 37
27 41
28 33
28 40
28 45
28 48
29 36
29 37
29 45
29 47
29 48
30 32
30 42
30 44
30 50
31 36
31 37
31 42
31 44
32 44
32 46
32 49
33 46
33 47
34 37
34 38
35 38
35 42
35 46
36 38
36 41
36 42
37 38
37 40
37 41
37 50
38 46
38 47
38 50
39 42
39 44
40 46
40 47
40 48
41 47
41 49
41 50
42 45
42 47
42 50
43 46
44 45
44 48
45 50
